c colouring generated by benchmark framework
p edge 500 112437
v 1 77
v 2 94
v 3 76
v 4 120
v 5 147
v 6 99
v 7 139
v 8 92
v 9 35
v 10 144
v 11 123
v 12 87
v 13 97
v 14 72
v 15 83
v 16 65
v 17 132
v 18 132
v 19 15
v 20 31
v 21 90
v 22 133
v 23 51
v 24 130
v 25 66
v 26 45
v 27 158
v 28 109
v 29 173
v 30 10
v 31 34
v 32 107
v 33 42
v 34 108
v 35 20
v 36 96
v 37 2
v 38 190
v 39 55
v 40 5
v 41 12
v 42 189
v 43 36
v 44 141
v 45 126
v 46 50
v 47 164
v 48 11
v 49 8
v 50 66
v 51 63
v 52 22
v 53 145
v 54 152
v 55 153
v 56 30
v 57 87
v 58 91
v 59 87
v 60 81
v 61 92
v 62 57
v 63 117
v 64 52
v 65 14
v 66 26
v 67 167
v 68 104
v 69 26
v 70 25
v 71 58
v 72 1
v 73 144
v 74 124
v 75 97
v 76 27
v 77 33
v 78 101
v 79 18
v 80 1
v 81 121
v 82 197
v 83 78
v 84 100
v 85 118
v 86 167
v 87 99
v 88 40
v 89 43
v 90 142
v 91 53
v 92 57
v 93 79
v 94 163
v 95 78
v 96 122
v 97 14
v 98 15
v 99 7
v 100 31
v 101 138
v 102 177
v 103 7
v 104 50
v 105 69
v 106 156
v 107 140
v 108 13
v 109 23
v 110 140
v 111 138
v 112 49
v 113 115
v 114 193
v 115 6
v 116 178
v 117 113
v 118 18
v 119 68
v 120 149
v 121 127
v 122 56
v 123 13
v 124 115
v 125 156
v 126 179
v 127 78
v 128 27
v 129 48
v 130 71
v 131 161
v 132 20
v 133 178
v 134 37
v 135 28
v 136 159
v 137 48
v 138 123
v 139 86
v 140 63
v 141 42
v 142 127
v 143 100
v 144 115
v 145 49
v 146 121
v 147 91
v 148 105
v 149 120
v 150 76
v 151 102
v 152 55
v 153 73
v 154 72
v 155 56
v 156 94
v 157 33
v 158 83
v 159 25
v 160 51
v 161 99
v 162 101
v 163 139
v 164 3
v 165 19
v 166 85
v 167 90
v 168 116
v 169 85
v 170 38
v 171 84
v 172 38
v 173 16
v 174 70
v 175 3
v 176 11
v 177 24
v 178 116
v 179 14
v 180 72
v 181 165
v 182 67
v 183 23
v 184 48
v 185 81
v 186 34
v 187 80
v 188 174
v 189 17
v 190 54
v 191 17
v 192 56
v 193 137
v 194 14
v 195 59
v 196 35
v 197 111
v 198 159
v 199 102
v 200 59
v 201 28
v 202 93
v 203 16
v 204 30
v 205 143
v 206 176
v 207 18
v 208 5
v 209 86
v 210 196
v 211 74
v 212 36
v 213 88
v 214 148
v 215 9
v 216 168
v 217 82
v 218 128
v 219 11
v 220 149
v 221 81
v 222 147
v 223 185
v 224 62
v 225 198
v 226 47
v 227 184
v 228 8
v 229 117
v 230 39
v 231 199
v 232 80
v 233 183
v 234 75
v 235 9
v 236 194
v 237 89
v 238 88
v 239 164
v 240 146
v 241 29
v 242 50
v 243 98
v 244 41
v 245 54
v 246 82
v 247 91
v 248 38
v 249 60
v 250 102
v 251 188
v 252 66
v 253 119
v 254 151
v 255 158
v 256 7
v 257 53
v 258 8
v 259 49
v 260 92
v 261 39
v 262 32
v 263 2
v 264 111
v 265 0
v 266 45
v 267 97
v 268 108
v 269 177
v 270 58
v 271 73
v 272 171
v 273 195
v 274 5
v 275 199
v 276 19
v 277 4
v 278 143
v 279 61
v 280 64
v 281 170
v 282 109
v 283 19
v 284 37
v 285 22
v 286 155
v 287 172
v 288 12
v 289 43
v 290 3
v 291 75
v 292 84
v 293 64
v 294 69
v 295 35
v 296 52
v 297 163
v 298 35
v 299 9
v 300 162
v 301 127
v 302 141
v 303 107
v 304 32
v 305 76
v 306 114
v 307 162
v 308 135
v 309 148
v 310 130
v 311 9
v 312 133
v 313 145
v 314 182
v 315 4
v 316 175
v 317 80
v 318 186
v 319 60
v 320 23
v 321 46
v 322 120
v 323 170
v 324 162
v 325 29
v 326 95
v 327 135
v 328 33
v 329 141
v 330 59
v 331 108
v 332 106
v 333 166
v 334 100
v 335 109
v 336 125
v 337 77
v 338 129
v 339 137
v 340 113
v 341 192
v 342 12
v 343 125
v 344 146
v 345 68
v 346 31
v 347 171
v 348 114
v 349 21
v 350 70
v 351 36
v 352 150
v 353 168
v 354 57
v 355 10
v 356 111
v 357 6
v 358 161
v 359 154
v 360 20
v 361 0
v 362 67
v 363 60
v 364 98
v 365 187
v 366 126
v 367 151
v 368 181
v 369 119
v 370 62
v 371 142
v 372 178
v 373 98
v 374 64
v 375 17
v 376 154
v 377 84
v 378 21
v 379 6
v 380 133
v 381 61
v 382 172
v 383 74
v 384 140
v 385 10
v 386 54
v 387 89
v 388 110
v 389 42
v 390 118
v 391 150
v 392 124
v 393 55
v 394 43
v 395 61
v 396 65
v 397 79
v 398 39
v 399 180
v 400 152
v 401 161
v 402 124
v 403 29
v 404 94
v 405 67
v 406 15
v 407 90
v 408 77
v 409 157
v 410 23
v 411 104
v 412 0
v 413 21
v 414 47
v 415 134
v 416 15
v 417 122
v 418 129
v 419 110
v 420 169
v 421 75
v 422 40
v 423 108
v 424 34
v 425 188
v 426 112
v 427 46
v 428 51
v 429 44
v 430 180
v 431 166
v 432 101
v 433 52
v 434 4
v 435 105
v 436 38
v 437 165
v 438 116
v 439 136
v 440 112
v 441 93
v 442 153
v 443 41
v 444 136
v 445 169
v 446 131
v 447 93
v 448 95
v 449 2
v 450 143
v 451 46
v 452 118
v 453 103
v 454 103
v 455 82
v 456 139
v 457 42
v 458 71
v 459 24
v 460 25
v 461 22
v 462 45
v 463 157
v 464 68
v 465 75
v 466 28
v 467 14
v 468 126
v 469 128
v 470 53
v 471 115
v 472 62
v 473 191
v 474 131
v 475 89
v 476 73
v 477 165
v 478 79
v 479 106
v 480 53
v 481 41
v 482 26
v 483 65
v 484 134
v 485 106
v 486 11
v 487 16
v 488 44
v 489 96
v 490 95
v 491 160
v 492 71
v 493 47
v 494 151
v 495 107
v 496 175
v 497 121
v 498 106
v 499 1
v 500 2
